NAME          
ROWS
 N  OBJ
 L  c1
 L  c2
 L  c3
 L  c4
COLUMNS
    MARKER    'MARKER'                 'INTORG'
    x[1]      c1        926
    x[1]      c2        485
    x[1]      c3        382
    x[1]      c4        520
    x[1]      OBJ       -182
    x[2]      c1        171
    x[2]      c2        18
    x[2]      c3        926
    x[2]      c4        295
    x[2]      OBJ       -148
    x[3]      c1        670
    x[3]      c2        665
    x[3]      c3        245
    x[3]      c4        340
    x[3]      OBJ       -876
    x[4]      c1        952
    x[4]      c2        708
    x[4]      c3        272
    x[4]      c4        401
    x[4]      OBJ       -152
    x[5]      c1        431
    x[5]      c2        791
    x[5]      c3        342
    x[5]      c4        345
    x[5]      OBJ       -849
    x[6]      c1        67
    x[6]      c2        931
    x[6]      c3        176
    x[6]      c4        819
    x[6]      OBJ       -39
    x[7]      c1        552
    x[7]      c2        622
    x[7]      c3        139
    x[7]      c4        688
    x[7]      OBJ       -662
    x[8]      c1        742
    x[8]      c2        248
    x[8]      c3        160
    x[8]      c4        195
    x[8]      OBJ       -682
    x[9]      c1        448
    x[9]      c2        807
    x[9]      c3        498
    x[9]      c4        199
    x[9]      OBJ       -632
    x[10]     c1        569
    x[10]     c2        306
    x[10]     c3        373
    x[10]     c4        451
    x[10]     OBJ       -80
    x[11]     c1        596
    x[11]     c2        491
    x[11]     c3        763
    x[11]     c4        985
    x[11]     OBJ       -849
    x[12]     c1        116
    x[12]     c2        810
    x[12]     c3        726
    x[12]     c4        763
    x[12]     OBJ       -519
    x[13]     c1        113
    x[13]     c2        935
    x[13]     c3        567
    x[13]     c4        267
    x[13]     OBJ       -437
    x[14]     c1        432
    x[14]     c2        506
    x[14]     c3        544
    x[14]     c4        128
    x[14]     OBJ       -863
    x[15]     c1        384
    x[15]     c2        750
    x[15]     c3        409
    x[15]     c4        608
    x[15]     OBJ       -812
    x[16]     c1        317
    x[16]     c2        31
    x[16]     c3        326
    x[16]     c4        289
    x[16]     OBJ       -213
    x[17]     c1        210
    x[17]     c2        235
    x[17]     c3        224
    x[17]     c4        132
    x[17]     OBJ       -34
    x[18]     c1        330
    x[18]     c2        711
    x[18]     c3        93
    x[18]     c4        793
    x[18]     OBJ       -773
    x[19]     c1        185
    x[19]     c2        142
    x[19]     c3        805
    x[19]     c4        719
    x[19]     OBJ       -228
    x[20]     c1        86
    x[20]     c2        362
    x[20]     c3        79
    x[20]     c4        971
    x[20]     OBJ       -373
    x[21]     c1        517
    x[21]     c2        583
    x[21]     c3        560
    x[21]     c4        638
    x[21]     OBJ       -495
    x[22]     c1        94
    x[22]     c2        964
    x[22]     c3        504
    x[22]     c4        703
    x[22]     OBJ       -601
    x[23]     c1        639
    x[23]     c2        643
    x[23]     c3        587
    x[23]     c4        575
    x[23]     OBJ       -172
    x[24]     c1        62
    x[24]     c2        507
    x[24]     c3        373
    x[24]     c4        682
    x[24]     OBJ       -292
    x[25]     c1        378
    x[25]     c2        820
    x[25]     c3        271
    x[25]     c4        263
    x[25]     OBJ       -646
    x[26]     c1        533
    x[26]     c2        531
    x[26]     c3        157
    x[26]     c4        343
    x[26]     OBJ       -732
    x[27]     c1        606
    x[27]     c2        483
    x[27]     c3        374
    x[27]     c4        545
    x[27]     OBJ       -255
    x[28]     c1        492
    x[28]     c2        386
    x[28]     c3        447
    x[28]     c4        947
    x[28]     OBJ       -949
    x[29]     c1        682
    x[29]     c2        115
    x[29]     c3        652
    x[29]     c4        136
    x[29]     OBJ       -541
    x[30]     c1        700
    x[30]     c2        537
    x[30]     c3        420
    x[30]     c4        883
    x[30]     OBJ       -67
    x[31]     c1        864
    x[31]     c2        439
    x[31]     c3        88
    x[31]     c4        435
    x[31]     OBJ       -635
    x[32]     c1        110
    x[32]     c2        253
    x[32]     c3        870
    x[32]     c4        446
    x[32]     OBJ       -243
    x[33]     c1        690
    x[33]     c2        671
    x[33]     c3        516
    x[33]     c4        159
    x[33]     OBJ       -765
    x[34]     c1        777
    x[34]     c2        186
    x[34]     c3        808
    x[34]     c4        118
    x[34]     OBJ       -24
    x[35]     c1        450
    x[35]     c2        527
    x[35]     c3        712
    x[35]     c4        569
    x[35]     OBJ       -240
    x[36]     c1        943
    x[36]     c2        840
    x[36]     c3        416
    x[36]     c4        203
    x[36]     OBJ       -550
    x[37]     c1        416
    x[37]     c2        226
    x[37]     c3        553
    x[37]     c4        602
    x[37]     OBJ       -552
    x[38]     c1        535
    x[38]     c2        724
    x[38]     c3        830
    x[38]     c4        281
    x[38]     OBJ       -848
    x[39]     c1        360
    x[39]     c2        480
    x[39]     c3        55
    x[39]     c4        953
    x[39]     OBJ       -77
    x[40]     c1        339
    x[40]     c2        250
    x[40]     c3        347
    x[40]     c4        653
    x[40]     OBJ       -249
    x[41]     c1        760
    x[41]     c2        743
    x[41]     c3        163
    x[41]     c4        403
    x[41]     OBJ       -473
    x[42]     c1        391
    x[42]     c2        65
    x[42]     c3        892
    x[42]     c4        988
    x[42]     OBJ       -794
    x[43]     c1        262
    x[43]     c2        512
    x[43]     c3        784
    x[43]     c4        519
    x[43]     OBJ       -460
    x[44]     c1        874
    x[44]     c2        784
    x[44]     c3        982
    x[44]     c4        393
    x[44]     OBJ       -827
    x[45]     c1        115
    x[45]     c2        424
    x[45]     c3        671
    x[45]     c4        306
    x[45]     OBJ       -635
RHS
    rhs       c1        10443
    rhs       c2        11624
    rhs       c3        10540
    rhs       c4        11326
RANGES
BOUNDS
 BV bounds    x[1]
 BV bounds    x[2]
 BV bounds    x[3]
 BV bounds    x[4]
 BV bounds    x[5]
 BV bounds    x[6]
 BV bounds    x[7]
 BV bounds    x[8]
 BV bounds    x[9]
 BV bounds    x[10]
 BV bounds    x[11]
 BV bounds    x[12]
 BV bounds    x[13]
 BV bounds    x[14]
 BV bounds    x[15]
 BV bounds    x[16]
 BV bounds    x[17]
 BV bounds    x[18]
 BV bounds    x[19]
 BV bounds    x[20]
 BV bounds    x[21]
 BV bounds    x[22]
 BV bounds    x[23]
 BV bounds    x[24]
 BV bounds    x[25]
 BV bounds    x[26]
 BV bounds    x[27]
 BV bounds    x[28]
 BV bounds    x[29]
 BV bounds    x[30]
 BV bounds    x[31]
 BV bounds    x[32]
 BV bounds    x[33]
 BV bounds    x[34]
 BV bounds    x[35]
 BV bounds    x[36]
 BV bounds    x[37]
 BV bounds    x[38]
 BV bounds    x[39]
 BV bounds    x[40]
 BV bounds    x[41]
 BV bounds    x[42]
 BV bounds    x[43]
 BV bounds    x[44]
 BV bounds    x[45]
ENDATA
